decision_x1=[0,4];
decision_x2=[0,4];
decision_x3=[0,4];
decision_x4=[0,4];
decision_x5=[0,4];
random_y1=[0,4];
constraint_x3_x1=[
0,1,9.6|
0,2,6.8|
0,3,3.7|
0,4,8.6|
1,0,4.8|
1,2,0.38|
1,3,6.3|
1,4,6.5|
2,0,1.4|
2,1,6.3|
2,3,4.8|
2,4,9.1|
3,0,1.2|
3,1,2|
3,2,7.5|
3,4,3.8|
4,0,3.5|
4,1,4.6|
4,2,2.7|
4,3,1.4|
];
constraint_x4_x1=[
0,1,2.9|
0,2,5.3|
0,3,2.4|
0,4,1.4|
1,0,1.2|
1,2,4.9|
1,3,6|
1,4,6.1|
2,0,0.65|
2,1,9.8|
2,3,0.86|
2,4,3.8|
3,0,4.9|
3,1,3.8|
3,2,0.91|
3,4,5|
4,0,0.37|
4,1,7.4|
4,2,2.8|
4,3,0.6|
];
constraint_x5_x1=[
0,1,0.54|
0,2,9.5|
0,3,7.3|
0,4,7.6|
1,0,4|
1,2,6.1|
1,3,8.5|
1,4,8.4|
2,0,4|
2,1,4.6|
2,3,9.2|
2,4,8.4|
3,0,4.8|
3,1,5.3|
3,2,9.2|
3,4,8.4|
4,0,8.9|
4,1,9.1|
4,2,4.2|
4,3,9.3|
];
constraint_x5_x2=[
0,1,3.4|
0,2,9.7|
0,3,3.6|
0,4,2.6|
1,0,1.3|
1,2,10|
1,3,6.8|
1,4,0.92|
2,0,2.3|
2,1,5.8|
2,3,0.71|
2,4,9|
3,0,5.8|
3,1,4.3|
3,2,9|
3,4,10|
4,0,8.6|
4,1,9.7|
4,2,9.3|
4,3,4|
];
constraint_x5_x3=[
0,1,7.6|
0,2,3.4|
0,3,3.7|
0,4,7.1|
1,0,6.7|
1,2,7.6|
1,3,8.9|
1,4,2.5|
2,0,2.4|
2,1,8.6|
2,3,7|
2,4,7.3|
3,0,1.7|
3,1,3.7|
3,2,6.8|
3,4,4.1|
4,0,3.1|
4,1,2.2|
4,2,3.2|
4,3,0.21|
];
constraint_x1_y1=[
0,0,6.1|
0,1,5.1|
0,2,4.1|
0,3,4.1|
0,4,1.8|
1,0,3.6|
1,1,5.4|
1,2,3|
1,3,2.8|
1,4,7.1|
2,0,5.8|
2,1,7.4|
2,2,8.7|
2,3,1.3|
2,4,7.8|
3,0,7.4|
3,1,4.4|
3,2,9.7|
3,3,8.6|
3,4,1|
4,0,1.3|
4,1,2.3|
4,2,3.2|
4,3,7.6|
4,4,2.3|
];
initial_distribution_y1=[0.11,0.31,0.024,0.55,0.018];
transition_y1=[
0.037,0.23,0.094,0.34,0.3|
0.015,0.17,0.28,0.28,0.26|
0.091,0.43,0.36,0.016,0.11|
0.37,0.17,0.29,0.16,0.0085|
0.079,0.23,0.39,0.0085,0.29|
];
